120
150
76
64
48
25
89
96
33
71
35
91
88
52
29
51
63
91
25
67
62
71
48
96
32
100
26
27
65
78
76
39
70
98
44
51
42
32
81
89
62
38
60
21
88
56
27
26
96
69
37
58
98
55
40
30
77
85
98
29
40
28
92
64
72
43
63
92
66
74
96
96
40
20
85
88
64
44
88
69
88
68
96
82
92
52
74
95
49
44
22
78
88
21
36
95
51
38
58
48
56
93
97
45
93
74
38
35
93
58
33
38
69
89
81
55
39
53
41
71
78
62
